(declare-fun bvlambda_1_ ()Bool         )
(declare-fun bvlambda_2_ ()Bool         )
(declare-fun bvlambda_3_ () (_ BitVec 9))
(declare-fun bvlambda_4_ ()Bool         )
(declare-fun bvlambda_21_ () (_ BitVec 4))
(declare-fun a114 () (Array (_ BitVec 1) (_ BitVec 6)))
(assert
(let (($e1 false    ))
(let (($e20 (_ bv0 11)))
(let (($e31 (_ bv0 3)))
(let (($e35 (_ bv46 6)))
(let (($e51 (_ bv0 5)))
(let (($e117 (concat $e20 bvlambda_21_)))
(let (($e118             $e117 ))
(let (($e119 (concat $e31 bvlambda_1_)))
(let (($e120 (concat $e119 bvlambda_2_)))
(let (($e121 (concat $e120 bvlambda_3_)))
(let (($e122 (concat $e121 bvlambda_4_)))
(let (($e123 (bvand (bvnot $e122) (bvnot $e118))))
(let (($e124 ((_ extract 13 13) $e123)))
(let (($e125 (store a114 $e1 $e35)))
(let (($e126 (select $e125 (bvnot $e124))))
(let (($e164                          #b1     ))
(let (($e165 (concat $e51 $e164)))
                  (bvult $e165 $e126)
                                                                                                                                                                                                                                                                                                                                                                                                                                                                                                                                                                                                                                                                                                                                                                                                                                                                                                                                                                                                                                                                                                                                                                                  ))                                     ))))))))))                                            )               )   )          )                  ))
